NAME: berlin30
TYPE: TSP
COMMENT: 30 locations in Berlin (Groetschel)
DIMENSION: 30
EDGE_WEIGHT_TYPE: EUC_2D
NODE_COORD_SECTION
1 565.0 575.0
2 25.0 185.0
3 345.0 750.0
4 945.0 685.0
5 845.0 655.0
6 880.0 660.0
7 25.0 230.0
8 525.0 1000.0
9 580.0 1175.0
10 650.0 1130.0
11 1605.0 620.0 
12 1220.0 580.0
13 1465.0 200.0
14 1530.0 5.0
15 845.0 680.0
16 725.0 370.0
17 145.0 665.0
18 415.0 635.0
19 510.0 875.0  
20 560.0 365.0
21 300.0 465.0
22 520.0 585.0
23 480.0 415.0
24 835.0 625.0
25 975.0 580.0
26 1215.0 245.0
27 1320.0 315.0
28 1250.0 400.0
29 660.0 180.0
30 410.0 250.0
EOF

DEMAND_SECTION
10 10

1 3 5 7  9 11 13 15 17 19
2 4 6 8 10 12 14 16 18 20

10
 1  2 3
 3  4 3
 5  6 3
 7  8 3
 9 10 3
11 12 3
13 14 3
15 16 3
17 18 3
19 20 3
